NAME: Random_55_1
ELLAPSED_TIME_(ms): 0
TOUR_SIZE: 1315.6244
TOUR_SECTION
0
1
16
29
3
21
34
49
24
19
30
37
53
26
40
18
6
10
9
28
20
11
13
32
42
44
51
2
7
27
5
25
52
17
8
15
36
54
35
50
4
47
12
14
39
45
38
41
31
33
22
23
46
48
43
0
EOF
